dates = {'2021-10-29','2021-10-30','2021-10-31','2021-11-01','2021-11-02','2021-11-03','2021-11-04','2021-11-05','2021-11-06','2021-11-07'};

daysOfWeek = [Friday,Saturday,Sunday,Monday,Tuesday,Wednesday,Thursday,Friday,Saturday,Sunday];

winter = false;

% For this week, how many people will be here.
numPeople = [35,35,35,41,38,52,52,59,44,44];

% Physical workers need 50 to 100 % more nutrients per day.
numPhysicalWorkers = [20.5,20.5,20.5,20.5,20.5,20.5,20.5,23.5,23.5,22.5];

% Males need +25% more nutrients per day.
numMen = [30,30,30,36,36,46,46,50,50,36];

% Num people who do not eat categories. contains = {none, meat, milk, gluten, egg, nut, seed, sugars}
numRefusals = [| 0,0,0,0,0,0,0,4 | 0,0,0,0,0,0,0,4 | 0,0,0,0,0,0,0,4 | 0,1,0,0,0,2,3,4 | 0,1,2,0,0,0,0,0 | 0,1,0,4,0,6,1,2 | 0,1,0,4,0,6,1,2 | 0,0,6,4,0,0,1,0 | 0,0,1,0,2,0,0,0 | 0,0,1,0,2,0,0,0 |];

